************************************************************************
file with basedata            : a1012_.bas
initial value random generator: 1987
************************************************************************
projects                      :  1
jobs (incl. supersource/sink ):  12
horizon bound                 :  80
RESOURCES
  - renewable                 :  4   R
  - nonrenewable              :  0   N
  - doubly constrained        :  0   D
  - partially renewable       :  0   P
************************************************************************
PROJECT INFORMATION:
prono.  #jobs rel.date duedate tardcost  CPM-Time
    1     10      0       12        3       12
************************************************************************
PRECEDENCE RELATIONS:
jobno.    #modes  #successors   successors
   1        1          3           2   3   4
   2        3          3           5   6   7
   3        3          3           5   7   8
   4        3          3           5   6   7
   5        3          3           9  10  11
   6        3          2           8   9
   7        3          3           9  10  11
   8        3          2          10  11
   9        3          1          12
  10        3          1          12
  11        3          1          12
  12        1          0        
************************************************************************
REQUESTS/DURATIONS:
jobno. mode duration  R 1  R 2  R 3  R 4
  1      1     0       0    0    0    0
  2      1     1       7    3    5    5
         2     3       6    2    4    5
         3     8       3    1    3    4
  3      1     2       9    6   10    8
         2     3       9    5    8    8
         3     7       8    3    7    6
  4      1     3       8    8    7    6
         2     6       8    7    7    5
         3     9       7    7    6    1
  5      1     3       8    4    8    5
         2     6       7    4    7    4
         3     7       3    3    7    3
  6      1     1      10    8    6    7
         2     4       8    8    5    4
         3     8       7    8    5    3
  7      1     3       3    5    2    7
         2     6       2    3    1    7
         3     9       2    1    1    7
  8      1     4       6    6   10    9
         2     5       4    4    4    5
         3     6       3    2    4    3
  9      1     1      10    9    2    5
         2     2       9    8    2    5
         3    10       9    8    1    4
 10      1     4       5    6    4    4
         2     9       5    4    4    2
         3    10       4    3    3    2
 11      1     1       5    8   10    8
         2     5       3    8    9    7
         3     6       2    7    9    7
 12      1     0       0    0    0    0
************************************************************************
RESOURCE AVAILABILITIES:
  R 1  R 2  R 3  R 4
   12   10   12   10
************************************************************************
